13 13
9
3 3 10 6
3 4 10 9
3 5 7 0
3 6 10 0
3 7 0 6
3 8 7 5
4 3 3 6
4 4 3 9
7 6 0 0
% time elapsed: 0.10 s
% time elapsed: 0.10 s
%%%mzn-stat: initTime=0.000294
%%%mzn-stat: solveTime=0.002036
%%%mzn-stat: solutions=25
%%%mzn-stat: variables=19
%%%mzn-stat: propagators=14
%%%mzn-stat: propagations=4305
%%%mzn-stat: nodes=596
%%%mzn-stat: failures=79
%%%mzn-stat: restarts=26
%%%mzn-stat: peakDepth=22
%%%mzn-stat-end
